p cnf 430 1488
-191 161 0
-191 111 0
-191 -117 0
-191 -74 0
-191 169 0
191 -161 -111 117 74 -169 0
-192 179 0
-192 -41 0
-192 -62 0
-192 151 0
-192 -36 0
192 -179 41 62 -151 36 0
-193 144 0
-193 27 0
-193 113 0
-193 77 0
-193 -2 0
193 -144 -27 -113 -77 2 0
-194 -157 0
-194 106 0
-194 -21 0
-194 -10 0
-194 165 0
194 157 -106 21 10 -165 0
-195 -71 0
-195 -77 0
-195 -165 0
-195 -161 0
-195 -56 0
195 71 77 165 161 56 0
191 192 193 194 195 0
-196 -80 0
-196 -29 0
-196 -48 0
-196 11 0
-196 53 0
196 80 29 48 -11 -53 0
-197 -27 0
-197 173 0
-197 -76 0
-197 186 0
-197 -61 0
197 27 -173 76 -186 61 0
-198 -170 0
-198 -10 0
-198 66 0
-198 -46 0
-198 -12 0
198 170 10 -66 46 12 0
-199 78 0
-199 64 0
-199 -87 0
-199 71 0
-199 25 0
199 -78 -64 87 -71 -25 0
-200 -77 0
-200 -169 0
-200 98 0
-200 143 0
-200 -179 0
200 77 169 -98 -143 179 0
196 197 198 199 200 0
-201 28 0
-201 -142 0
-201 -175 0
-201 85 0
-201 -150 0
201 -28 142 175 -85 150 0
-202 -50 0
-202 166 0
-202 122 0
-202 -189 0
-202 63 0
202 50 -166 -122 189 -63 0
-203 -91 0
-203 -58 0
-203 -134 0
-203 -54 0
-203 -98 0
203 91 58 134 54 98 0
-204 127 0
-204 181 0
-204 -115 0
-204 186 0
-204 53 0
204 -127 -181 115 -186 -53 0
-205 -167 0
-205 61 0
-205 12 0
-205 -98 0
-205 -45 0
205 167 -61 -12 98 45 0
201 202 203 204 205 0
-206 91 0
-206 62 0
-206 186 0
-206 -170 0
-206 95 0
206 -91 -62 -186 170 -95 0
-207 -171 0
-207 -179 0
-207 82 0
-207 -159 0
-207 173 0
207 171 179 -82 159 -173 0
-208 -167 0
-208 -50 0
-208 -75 0
-208 -112 0
-208 -175 0
208 167 50 75 112 175 0
-209 100 0
-209 130 0
-209 7 0
-209 20 0
-209 106 0
209 -100 -130 -7 -20 -106 0
-210 68 0
-210 100 0
-210 -113 0
-210 140 0
-210 -38 0
210 -68 -100 113 -140 38 0
206 207 208 209 210 0
-211 133 0
-211 -37 0
-211 -72 0
-211 187 0
-211 -190 0
211 -133 37 72 -187 190 0
-212 -164 0
-212 -133 0
-212 -52 0
-212 -190 0
-212 -15 0
212 164 133 52 190 15 0
-213 108 0
-213 -4 0
-213 -150 0
-213 -64 0
-213 -70 0
213 -108 4 150 64 70 0
-214 172 0
-214 41 0
-214 -81 0
-214 -119 0
-214 -138 0
214 -172 -41 81 119 138 0
-215 137 0
-215 -27 0
-215 76 0
-215 -91 0
-215 47 0
215 -137 27 -76 91 -47 0
211 212 213 214 215 0
-216 83 0
-216 136 0
-216 -89 0
-216 -118 0
-216 -48 0
216 -83 -136 89 118 48 0
-217 36 0
-217 95 0
-217 -52 0
-217 -10 0
-217 -70 0
217 -36 -95 52 10 70 0
-218 142 0
-218 107 0
-218 -108 0
-218 129 0
-218 186 0
218 -142 -107 108 -129 -186 0
-219 171 0
-219 112 0
-219 80 0
-219 -19 0
-219 65 0
219 -171 -112 -80 19 -65 0
-220 -61 0
-220 -114 0
-220 -75 0
-220 173 0
-220 -147 0
220 61 114 75 -173 147 0
216 217 218 219 220 0
-221 -132 0
-221 -66 0
-221 -70 0
-221 -41 0
-221 46 0
221 132 66 70 41 -46 0
-222 -100 0
-222 -168 0
-222 -12 0
-222 -17 0
-222 -187 0
222 100 168 12 17 187 0
-223 53 0
-223 -8 0
-223 139 0
-223 15 0
-223 171 0
223 -53 8 -139 -15 -171 0
-224 -90 0
-224 187 0
-224 -81 0
-224 119 0
-224 83 0
224 90 -187 81 -119 -83 0
-225 -53 0
-225 96 0
-225 82 0
-225 -114 0
-225 35 0
225 53 -96 -82 114 -35 0
221 222 223 224 225 0
-226 -182 0
-226 -127 0
-226 126 0
-226 104 0
-226 94 0
226 182 127 -126 -104 -94 0
-227 -61 0
-227 129 0
-227 131 0
-227 189 0
-227 173 0
227 61 -129 -131 -189 -173 0
-228 -111 0
-228 139 0
-228 -36 0
-228 170 0
-228 109 0
228 111 -139 36 -170 -109 0
-229 145 0
-229 -68 0
-229 -35 0
-229 -93 0
-229 165 0
229 -145 68 35 93 -165 0
-230 -16 0
-230 -174 0
-230 -41 0
-230 -154 0
-230 62 0
230 16 174 41 154 -62 0
226 227 228 229 230 0
-231 -27 0
-231 -181 0
-231 -85 0
-231 90 0
-231 -54 0
231 27 181 85 -90 54 0
-232 -87 0
-232 -152 0
-232 128 0
-232 -46 0
-232 -139 0
232 87 152 -128 46 139 0
-233 -106 0
-233 -109 0
-233 169 0
-233 22 0
-233 -56 0
233 106 109 -169 -22 56 0
-234 -27 0
-234 140 0
-234 -74 0
-234 -161 0
-234 -121 0
234 27 -140 74 161 121 0
-235 131 0
-235 -98 0
-235 -12 0
-235 -119 0
-235 110 0
235 -131 98 12 119 -110 0
231 232 233 234 235 0
-236 -25 0
-236 -183 0
-236 48 0
-236 78 0
-236 -110 0
236 25 183 -48 -78 110 0
-237 26 0
-237 3 0
-237 161 0
-237 44 0
-237 -126 0
237 -26 -3 -161 -44 126 0
-238 -164 0
-238 167 0
-238 93 0
-238 143 0
-238 -148 0
238 164 -167 -93 -143 148 0
-239 -26 0
-239 116 0
-239 124 0
-239 -128 0
-239 105 0
239 26 -116 -124 128 -105 0
-240 -48 0
-240 -43 0
-240 -58 0
-240 86 0
-240 115 0
240 48 43 58 -86 -115 0
236 237 238 239 240 0
-241 112 0
-241 13 0
-241 37 0
-241 148 0
-241 -49 0
241 -112 -13 -37 -148 49 0
-242 183 0
-242 -1 0
-242 54 0
-242 138 0
-242 155 0
242 -183 1 -54 -138 -155 0
-243 -142 0
-243 -26 0
-243 -153 0
-243 74 0
-243 -151 0
243 142 26 153 -74 151 0
-244 -80 0
-244 103 0
-244 -106 0
-244 82 0
-244 -58 0
244 80 -103 106 -82 58 0
-245 180 0
-245 6 0
-245 -163 0
-245 -83 0
-245 64 0
245 -180 -6 163 83 -64 0
241 242 243 244 245 0
-246 17 0
-246 -103 0
-246 -188 0
-246 150 0
-246 -116 0
246 -17 103 188 -150 116 0
-247 46 0
-247 116 0
-247 -127 0
-247 -142 0
-247 183 0
247 -46 -116 127 142 -183 0
-248 -80 0
-248 -2 0
-248 30 0
-248 -22 0
-248 95 0
248 80 2 -30 22 -95 0
-249 164 0
-249 126 0
-249 -136 0
-249 83 0
-249 122 0
249 -164 -126 136 -83 -122 0
-250 -183 0
-250 -105 0
-250 -81 0
-250 -110 0
-250 55 0
250 183 105 81 110 -55 0
246 247 248 249 250 0
-251 37 0
-251 -141 0
-251 -130 0
-251 143 0
-251 -80 0
251 -37 141 130 -143 80 0
-252 55 0
-252 -171 0
-252 -76 0
-252 51 0
-252 105 0
252 -55 171 76 -51 -105 0
-253 172 0
-253 -31 0
-253 -105 0
-253 3 0
-253 152 0
253 -172 31 105 -3 -152 0
-254 15 0
-254 -150 0
-254 -134 0
-254 152 0
-254 -119 0
254 -15 150 134 -152 119 0
-255 -50 0
-255 -115 0
-255 121 0
-255 -141 0
-255 61 0
255 50 115 -121 141 -61 0
251 252 253 254 255 0
-256 -154 0
-256 -164 0
-256 47 0
-256 5 0
-256 43 0
256 154 164 -47 -5 -43 0
-257 174 0
-257 -134 0
-257 -142 0
-257 5 0
-257 -75 0
257 -174 134 142 -5 75 0
-258 -161 0
-258 151 0
-258 183 0
-258 -163 0
-258 -138 0
258 161 -151 -183 163 138 0
-259 -109 0
-259 -25 0
-259 -41 0
-259 -140 0
-259 40 0
259 109 25 41 140 -40 0
-260 94 0
-260 152 0
-260 -179 0
-260 -104 0
-260 158 0
260 -94 -152 179 104 -158 0
256 257 258 259 260 0
-261 -125 0
-261 -35 0
-261 -5 0
-261 -173 0
-261 -174 0
261 125 35 5 173 174 0
-262 -42 0
-262 -91 0
-262 -7 0
-262 -150 0
-262 -57 0
262 42 91 7 150 57 0
-263 120 0
-263 60 0
-263 72 0
-263 105 0
-263 159 0
263 -120 -60 -72 -105 -159 0
-264 92 0
-264 75 0
-264 -174 0
-264 70 0
-264 14 0
264 -92 -75 174 -70 -14 0
-265 159 0
-265 185 0
-265 13 0
-265 -59 0
-265 175 0
265 -159 -185 -13 59 -175 0
261 262 263 264 265 0
-266 -104 0
-266 91 0
-266 -51 0
-266 177 0
-266 58 0
266 104 -91 51 -177 -58 0
-267 21 0
-267 122 0
-267 -93 0
-267 157 0
-267 56 0
267 -21 -122 93 -157 -56 0
-268 151 0
-268 -57 0
-268 -73 0
-268 -53 0
-268 -25 0
268 -151 57 73 53 25 0
-269 -100 0
-269 -94 0
-269 -87 0
-269 -187 0
-269 -33 0
269 100 94 87 187 33 0
-270 -62 0
-270 -72 0
-270 -43 0
-270 -190 0
-270 -166 0
270 62 72 43 190 166 0
266 267 268 269 270 0
-271 -177 0
-271 14 0
-271 -49 0
-271 -186 0
-271 15 0
271 177 -14 49 186 -15 0
-272 -145 0
-272 -73 0
-272 93 0
-272 -102 0
-272 -158 0
272 145 73 -93 102 158 0
-273 55 0
-273 -70 0
-273 -116 0
-273 -185 0
-273 -24 0
273 -55 70 116 185 24 0
-274 -183 0
-274 -59 0
-274 37 0
-274 -138 0
-274 133 0
274 183 59 -37 138 -133 0
-275 -169 0
-275 -80 0
-275 86 0
-275 91 0
-275 132 0
275 169 80 -86 -91 -132 0
271 272 273 274 275 0
-276 -179 0
-276 187 0
-276 -57 0
-276 25 0
-276 170 0
276 179 -187 57 -25 -170 0
-277 146 0
-277 26 0
-277 31 0
-277 -79 0
-277 133 0
277 -146 -26 -31 79 -133 0
-278 -169 0
-278 147 0
-278 -41 0
-278 -174 0
-278 -89 0
278 169 -147 41 174 89 0
-279 113 0
-279 3 0
-279 -120 0
-279 147 0
-279 54 0
279 -113 -3 120 -147 -54 0
-280 -49 0
-280 -88 0
-280 104 0
-280 -55 0
-280 -83 0
280 49 88 -104 55 83 0
276 277 278 279 280 0
-281 -64 0
-281 36 0
-281 -133 0
-281 -44 0
-281 110 0
281 64 -36 133 44 -110 0
-282 -30 0
-282 44 0
-282 -184 0
-282 83 0
-282 4 0
282 30 -44 184 -83 -4 0
-283 32 0
-283 5 0
-283 60 0
-283 -80 0
-283 178 0
283 -32 -5 -60 80 -178 0
-284 -10 0
-284 114 0
-284 2 0
-284 163 0
-284 124 0
284 10 -114 -2 -163 -124 0
-285 129 0
-285 50 0
-285 73 0
-285 154 0
-285 25 0
285 -129 -50 -73 -154 -25 0
281 282 283 284 285 0
-286 -52 0
-286 9 0
-286 172 0
-286 -177 0
-286 -26 0
286 52 -9 -172 177 26 0
-287 -174 0
-287 70 0
-287 -77 0
-287 -6 0
-287 -89 0
287 174 -70 77 6 89 0
-288 -130 0
-288 187 0
-288 39 0
-288 139 0
-288 -84 0
288 130 -187 -39 -139 84 0
-289 -37 0
-289 -158 0
-289 54 0
-289 -38 0
-289 -157 0
289 37 158 -54 38 157 0
-290 56 0
-290 190 0
-290 159 0
-290 -88 0
-290 -119 0
290 -56 -190 -159 88 119 0
286 287 288 289 290 0
-291 25 0
-291 20 0
-291 -130 0
-291 -102 0
-291 -50 0
291 -25 -20 130 102 50 0
-292 61 0
-292 -12 0
-292 152 0
-292 -10 0
-292 96 0
292 -61 12 -152 10 -96 0
-293 45 0
-293 112 0
-293 127 0
-293 169 0
-293 18 0
293 -45 -112 -127 -169 -18 0
-294 -164 0
-294 -187 0
-294 21 0
-294 -183 0
-294 -182 0
294 164 187 -21 183 182 0
-295 184 0
-295 -76 0
-295 -42 0
-295 -50 0
-295 66 0
295 -184 76 42 50 -66 0
291 292 293 294 295 0
-296 42 0
-296 136 0
-296 5 0
-296 190 0
-296 157 0
296 -42 -136 -5 -190 -157 0
-297 -153 0
-297 149 0
-297 -105 0
-297 154 0
-297 116 0
297 153 -149 105 -154 -116 0
-298 -13 0
-298 6 0
-298 123 0
-298 -144 0
-298 51 0
298 13 -6 -123 144 -51 0
-299 45 0
-299 -92 0
-299 -144 0
-299 188 0
-299 152 0
299 -45 92 144 -188 -152 0
-300 -54 0
-300 151 0
-300 -163 0
-300 144 0
-300 -23 0
300 54 -151 163 -144 23 0
296 297 298 299 300 0
-301 -39 0
-301 -172 0
-301 56 0
-301 -112 0
-301 -99 0
301 39 172 -56 112 99 0
-302 181 0
-302 51 0
-302 -2 0
-302 122 0
-302 -27 0
302 -181 -51 2 -122 27 0
-303 -144 0
-303 -61 0
-303 -162 0
-303 180 0
-303 -26 0
303 144 61 162 -180 26 0
-304 -50 0
-304 19 0
-304 -151 0
-304 100 0
-304 116 0
304 50 -19 151 -100 -116 0
-305 -17 0
-305 -124 0
-305 54 0
-305 -46 0
-305 10 0
305 17 124 -54 46 -10 0
301 302 303 304 305 0
-306 48 0
-306 137 0
-306 -131 0
-306 60 0
-306 -154 0
306 -48 -137 131 -60 154 0
-307 56 0
-307 82 0
-307 -94 0
-307 -185 0
-307 147 0
307 -56 -82 94 185 -147 0
-308 -174 0
-308 137 0
-308 152 0
-308 67 0
-308 -139 0
308 174 -137 -152 -67 139 0
-309 -44 0
-309 -94 0
-309 -112 0
-309 -43 0
-309 183 0
309 44 94 112 43 -183 0
-310 65 0
-310 -184 0
-310 -66 0
-310 137 0
-310 170 0
310 -65 184 66 -137 -170 0
306 307 308 309 310 0
-311 -34 0
-311 -124 0
-311 -176 0
-311 41 0
-311 55 0
311 34 124 176 -41 -55 0
-312 132 0
-312 -48 0
-312 -98 0
-312 -64 0
-312 -100 0
312 -132 48 98 64 100 0
-313 -121 0
-313 -80 0
-313 124 0
-313 -138 0
-313 -171 0
313 121 80 -124 138 171 0
-314 -74 0
-314 145 0
-314 81 0
-314 -79 0
-314 14 0
314 74 -145 -81 79 -14 0
-315 139 0
-315 67 0
-315 -34 0
-315 -144 0
-315 40 0
315 -139 -67 34 144 -40 0
311 312 313 314 315 0
-316 142 0
-316 -56 0
-316 60 0
-316 -106 0
-316 85 0
316 -142 56 -60 106 -85 0
-317 85 0
-317 -71 0
-317 171 0
-317 -69 0
-317 -166 0
317 -85 71 -171 69 166 0
-318 -80 0
-318 -62 0
-318 42 0
-318 -114 0
-318 4 0
318 80 62 -42 114 -4 0
-319 105 0
-319 187 0
-319 125 0
-319 -14 0
-319 74 0
319 -105 -187 -125 14 -74 0
-320 61 0
-320 -17 0
-320 9 0
-320 46 0
-320 -183 0
320 -61 17 -9 -46 183 0
316 317 318 319 320 0
-321 -139 0
-321 -73 0
-321 -57 0
-321 -15 0
-321 -149 0
321 139 73 57 15 149 0
-322 42 0
-322 -52 0
-322 -98 0
-322 -123 0
-322 -101 0
322 -42 52 98 123 101 0
-323 -149 0
-323 50 0
-323 176 0
-323 -184 0
-323 -159 0
323 149 -50 -176 184 159 0
-324 -88 0
-324 165 0
-324 -95 0
-324 26 0
-324 48 0
324 88 -165 95 -26 -48 0
-325 -113 0
-325 75 0
-325 -91 0
-325 124 0
-325 -136 0
325 113 -75 91 -124 136 0
321 322 323 324 325 0
-326 -136 0
-326 150 0
-326 70 0
-326 -126 0
-326 130 0
326 136 -150 -70 126 -130 0
-327 -182 0
-327 -80 0
-327 148 0
-327 -103 0
-327 111 0
327 182 80 -148 103 -111 0
-328 -112 0
-328 -147 0
-328 -142 0
-328 35 0
-328 -181 0
328 112 147 142 -35 181 0
-329 -51 0
-329 115 0
-329 -190 0
-329 -87 0
-329 38 0
329 51 -115 190 87 -38 0
-330 -183 0
-330 88 0
-330 141 0
-330 -5 0
-330 54 0
330 183 -88 -141 5 -54 0
326 327 328 329 330 0
-331 175 0
-331 158 0
-331 164 0
-331 163 0
-331 -85 0
331 -175 -158 -164 -163 85 0
-332 76 0
-332 139 0
-332 86 0
-332 175 0
-332 -113 0
332 -76 -139 -86 -175 113 0
-333 -146 0
-333 128 0
-333 129 0
-333 -77 0
-333 -149 0
333 146 -128 -129 77 149 0
-334 145 0
-334 -75 0
-334 53 0
-334 -187 0
-334 -88 0
334 -145 75 -53 187 88 0
-335 -95 0
-335 120 0
-335 -106 0
-335 -141 0
-335 -83 0
335 95 -120 106 141 83 0
331 332 333 334 335 0
-336 -31 0
-336 -54 0
-336 183 0
-336 117 0
-336 55 0
336 31 54 -183 -117 -55 0
-337 84 0
-337 3 0
-337 163 0
-337 123 0
-337 -76 0
337 -84 -3 -163 -123 76 0
-338 -168 0
-338 -158 0
-338 -26 0
-338 95 0
-338 -185 0
338 168 158 26 -95 185 0
-339 113 0
-339 -152 0
-339 -67 0
-339 -71 0
-339 -154 0
339 -113 152 67 71 154 0
-340 -113 0
-340 162 0
-340 -24 0
-340 -116 0
-340 -40 0
340 113 -162 24 116 40 0
336 337 338 339 340 0
-341 101 0
-341 92 0
-341 -95 0
-341 27 0
-341 120 0
341 -101 -92 95 -27 -120 0
-342 63 0
-342 -41 0
-342 169 0
-342 -173 0
-342 161 0
342 -63 41 -169 173 -161 0
-343 -35 0
-343 -39 0
-343 -96 0
-343 -182 0
-343 184 0
343 35 39 96 182 -184 0
-344 -146 0
-344 -175 0
-344 -160 0
-344 -135 0
-344 -152 0
344 146 175 160 135 152 0
-345 -187 0
-345 129 0
-345 185 0
-345 -66 0
-345 96 0
345 187 -129 -185 66 -96 0
341 342 343 344 345 0
-346 -121 0
-346 -75 0
-346 -7 0
-346 144 0
-346 17 0
346 121 75 7 -144 -17 0
-347 76 0
-347 163 0
-347 -29 0
-347 -55 0
-347 146 0
347 -76 -163 29 55 -146 0
-348 114 0
-348 -87 0
-348 167 0
-348 79 0
-348 -182 0
348 -114 87 -167 -79 182 0
-349 -30 0
-349 2 0
-349 -60 0
-349 15 0
-349 20 0
349 30 -2 60 -15 -20 0
-350 140 0
-350 66 0
-350 58 0
-350 -38 0
-350 -22 0
350 -140 -66 -58 38 22 0
346 347 348 349 350 0
-351 -44 0
-351 141 0
-351 -138 0
-351 85 0
-351 -90 0
351 44 -141 138 -85 90 0
-352 53 0
-352 87 0
-352 -65 0
-352 143 0
-352 -132 0
352 -53 -87 65 -143 132 0
-353 8 0
-353 97 0
-353 71 0
-353 -139 0
-353 123 0
353 -8 -97 -71 139 -123 0
-354 78 0
-354 96 0
-354 -169 0
-354 -112 0
-354 -93 0
354 -78 -96 169 112 93 0
-355 -154 0
-355 -118 0
-355 89 0
-355 119 0
-355 -178 0
355 154 118 -89 -119 178 0
351 352 353 354 355 0
-356 123 0
-356 -54 0
-356 104 0
-356 -52 0
-356 3 0
356 -123 54 -104 52 -3 0
-357 -130 0
-357 -8 0
-357 -83 0
-357 61 0
-357 98 0
357 130 8 83 -61 -98 0
-358 -114 0
-358 144 0
-358 -32 0
-358 -145 0
-358 -81 0
358 114 -144 32 145 81 0
-359 -94 0
-359 -71 0
-359 21 0
-359 -105 0
-359 119 0
359 94 71 -21 105 -119 0
-360 -12 0
-360 30 0
-360 101 0
-360 -114 0
-360 145 0
360 12 -30 -101 114 -145 0
356 357 358 359 360 0
-361 -155 0
-361 -23 0
-361 -119 0
-361 151 0
-361 14 0
361 155 23 119 -151 -14 0
-362 -3 0
-362 -24 0
-362 -102 0
-362 165 0
-362 -184 0
362 3 24 102 -165 184 0
-363 159 0
-363 40 0
-363 -41 0
-363 54 0
-363 151 0
363 -159 -40 41 -54 -151 0
-364 21 0
-364 140 0
-364 98 0
-364 87 0
-364 -48 0
364 -21 -140 -98 -87 48 0
-365 -142 0
-365 -177 0
-365 78 0
-365 93 0
-365 131 0
365 142 177 -78 -93 -131 0
361 362 363 364 365 0
-366 -51 0
-366 -26 0
-366 62 0
-366 88 0
-366 -38 0
366 51 26 -62 -88 38 0
-367 -168 0
-367 148 0
-367 -17 0
-367 65 0
-367 155 0
367 168 -148 17 -65 -155 0
-368 134 0
-368 -123 0
-368 163 0
-368 122 0
-368 152 0
368 -134 123 -163 -122 -152 0
-369 -51 0
-369 -45 0
-369 -19 0
-369 -83 0
-369 -52 0
369 51 45 19 83 52 0
-370 67 0
-370 37 0
-370 177 0
-370 151 0
-370 175 0
370 -67 -37 -177 -151 -175 0
366 367 368 369 370 0
-371 -155 0
-371 -163 0
-371 -134 0
-371 -54 0
-371 50 0
371 155 163 134 54 -50 0
-372 -86 0
-372 178 0
-372 -60 0
-372 -25 0
-372 111 0
372 86 -178 60 25 -111 0
-373 22 0
-373 -115 0
-373 -60 0
-373 -6 0
-373 38 0
373 -22 115 60 6 -38 0
-374 -122 0
-374 -133 0
-374 -179 0
-374 -33 0
-374 31 0
374 122 133 179 33 -31 0
-375 -154 0
-375 -54 0
-375 151 0
-375 -78 0
-375 -110 0
375 154 54 -151 78 110 0
371 372 373 374 375 0
-376 150 0
-376 20 0
-376 60 0
-376 -29 0
-376 -109 0
376 -150 -20 -60 29 109 0
-377 31 0
-377 90 0
-377 -50 0
-377 -89 0
-377 118 0
377 -31 -90 50 89 -118 0
-378 106 0
-378 -83 0
-378 55 0
-378 -42 0
-378 80 0
378 -106 83 -55 42 -80 0
-379 -19 0
-379 -8 0
-379 88 0
-379 -146 0
-379 80 0
379 19 8 -88 146 -80 0
-380 20 0
-380 -73 0
-380 -35 0
-380 -85 0
-380 -95 0
380 -20 73 35 85 95 0
376 377 378 379 380 0
-381 97 0
-381 -91 0
-381 51 0
-381 -86 0
-381 -138 0
381 -97 91 -51 86 138 0
-382 -88 0
-382 -116 0
-382 37 0
-382 157 0
-382 -149 0
382 88 116 -37 -157 149 0
-383 55 0
-383 -27 0
-383 187 0
-383 -51 0
-383 -78 0
383 -55 27 -187 51 78 0
-384 -123 0
-384 -137 0
-384 7 0
-384 27 0
-384 -119 0
384 123 137 -7 -27 119 0
-385 79 0
-385 115 0
-385 16 0
-385 -122 0
-385 168 0
385 -79 -115 -16 122 -168 0
381 382 383 384 385 0
-386 36 0
-386 -68 0
-386 11 0
-386 24 0
-386 46 0
386 -36 68 -11 -24 -46 0
-387 -8 0
-387 59 0
-387 104 0
-387 158 0
-387 114 0
387 8 -59 -104 -158 -114 0
-388 -178 0
-388 -97 0
-388 -71 0
-388 9 0
-388 -48 0
388 178 97 71 -9 48 0
-389 129 0
-389 136 0
-389 -142 0
-389 -114 0
-389 -171 0
389 -129 -136 142 114 171 0
-390 -133 0
-390 -75 0
-390 68 0
-390 46 0
-390 -71 0
390 133 75 -68 -46 71 0
386 387 388 389 390 0
-391 5 0
-391 114 0
-391 36 0
-391 107 0
-391 -142 0
391 -5 -114 -36 -107 142 0
-392 -176 0
-392 -76 0
-392 178 0
-392 70 0
-392 142 0
392 176 76 -178 -70 -142 0
-393 121 0
-393 3 0
-393 -33 0
-393 154 0
-393 150 0
393 -121 -3 33 -154 -150 0
-394 -135 0
-394 -60 0
-394 -156 0
-394 106 0
-394 8 0
394 135 60 156 -106 -8 0
-395 59 0
-395 55 0
-395 37 0
-395 12 0
-395 50 0
395 -59 -55 -37 -12 -50 0
391 392 393 394 395 0
-396 114 0
-396 -24 0
-396 -163 0
-396 -2 0
-396 -45 0
396 -114 24 163 2 45 0
-397 144 0
-397 115 0
-397 -61 0
-397 7 0
-397 40 0
397 -144 -115 61 -7 -40 0
-398 163 0
-398 123 0
-398 113 0
-398 -33 0
-398 95 0
398 -163 -123 -113 33 -95 0
-399 56 0
-399 -9 0
-399 -87 0
-399 -62 0
-399 -190 0
399 -56 9 87 62 190 0
-400 85 0
-400 189 0
-400 188 0
-400 98 0
-400 -134 0
400 -85 -189 -188 -98 134 0
396 397 398 399 400 0
-401 -158 0
-401 -120 0
-401 -24 0
-401 168 0
-401 169 0
401 158 120 24 -168 -169 0
-402 186 0
-402 163 0
-402 -182 0
-402 -70 0
-402 -105 0
402 -186 -163 182 70 105 0
-403 13 0
-403 94 0
-403 147 0
-403 -82 0
-403 -116 0
403 -13 -94 -147 82 116 0
-404 -71 0
-404 30 0
-404 -169 0
-404 -184 0
-404 -129 0
404 71 -30 169 184 129 0
-405 -73 0
-405 25 0
-405 -102 0
-405 17 0
-405 171 0
405 73 -25 102 -17 -171 0
401 402 403 404 405 0
-406 159 0
-406 -103 0
-406 -134 0
-406 71 0
-406 22 0
406 -159 103 134 -71 -22 0
-407 -163 0
-407 -40 0
-407 53 0
-407 -123 0
-407 -64 0
407 163 40 -53 123 64 0
-408 30 0
-408 110 0
-408 -21 0
-408 189 0
-408 51 0
408 -30 -110 21 -189 -51 0
-409 -165 0
-409 16 0
-409 104 0
-409 -160 0
-409 -1 0
409 165 -16 -104 160 1 0
-410 -21 0
-410 125 0
-410 -64 0
-410 -113 0
-410 81 0
410 21 -125 64 113 -81 0
406 407 408 409 410 0
-411 -68 0
-411 -183 0
-411 -96 0
-411 -116 0
-411 55 0
411 68 183 96 116 -55 0
-412 -98 0
-412 -81 0
-412 4 0
-412 51 0
-412 -140 0
412 98 81 -4 -51 140 0
-413 139 0
-413 90 0
-413 122 0
-413 -150 0
-413 -170 0
413 -139 -90 -122 150 170 0
-414 -54 0
-414 99 0
-414 -59 0
-414 -83 0
-414 171 0
414 54 -99 59 83 -171 0
-415 -146 0
-415 -114 0
-415 -39 0
-415 100 0
-415 -166 0
415 146 114 39 -100 166 0
411 412 413 414 415 0
-416 -95 0
-416 -97 0
-416 49 0
-416 181 0
-416 156 0
416 95 97 -49 -181 -156 0
-417 -49 0
-417 -176 0
-417 98 0
-417 136 0
-417 -108 0
417 49 176 -98 -136 108 0
-418 151 0
-418 -175 0
-418 -180 0
-418 -94 0
-418 120 0
418 -151 175 180 94 -120 0
-419 96 0
-419 186 0
-419 -60 0
-419 119 0
-419 166 0
419 -96 -186 60 -119 -166 0
-420 -61 0
-420 -106 0
-420 82 0
-420 88 0
-420 -47 0
420 61 106 -82 -88 47 0
416 417 418 419 420 0
-421 -140 0
-421 -164 0
-421 37 0
-421 -92 0
-421 -48 0
421 140 164 -37 92 48 0
-422 -131 0
-422 -37 0
-422 -189 0
-422 -70 0
-422 91 0
422 131 37 189 70 -91 0
-423 -161 0
-423 -104 0
-423 152 0
-423 -86 0
-423 -80 0
423 161 104 -152 86 80 0
-424 -110 0
-424 57 0
-424 70 0
-424 -43 0
-424 138 0
424 110 -57 -70 43 -138 0
-425 -76 0
-425 42 0
-425 -52 0
-425 146 0
-425 -36 0
425 76 -42 52 -146 36 0
421 422 423 424 425 0
-426 -148 0
-426 163 0
-426 3 0
-426 -93 0
-426 -186 0
426 148 -163 -3 93 186 0
-427 -17 0
-427 179 0
-427 -132 0
-427 190 0
-427 -110 0
427 17 -179 132 -190 110 0
-428 69 0
-428 -184 0
-428 -181 0
-428 -15 0
-428 -52 0
428 -69 184 181 15 52 0
-429 -176 0
-429 85 0
-429 112 0
-429 24 0
-429 -160 0
429 176 -85 -112 -24 160 0
-430 -31 0
-430 -82 0
-430 -103 0
-430 -8 0
-430 139 0
430 31 82 103 8 -139 0
426 427 428 429 430 0
